810.95,46.43,53.03
908.07,41.47,47.36
774.28,48.63,55.54
712.59,52.84,60.35
843.43,44.64,50.99
747.93,50.34,57.5
719.92,52.3,59.73
849.2,44.34,50.64
798.21,47.17,53.87
890.91,42.26,48.27
808.11,46.59,53.21
839.11,44.87,51.25
893.54,42.14,48.13
877.68,42.9,49.0
800.47,47.04,53.72
787.35,47.82,54.62
776.03,48.52,55.41
811.32,46.41,53.0
731.92,51.44,58.75
856.83,43.94,50.19
